p cnf 55 165
a 10 13 0
e 1 2 3 4 5 6 7 8 9 11 12 14 15 16 17 18 19 20 21 22 23 24 25 26 27 28 29 30 31 32 33 34 35 36 37 38 39 40 41 42 43 44 45 46 47 48 49 50 51 52 53 54 55 0
2 3 -4 0
-2 -3 -4 0
2 -3 4 0
-2 3 4 0
6 4 0
6 5 0
-4 -5 -6 0
-9 7 0
-9 8 0
-7 -8 9 0
-6 9 -10 0
6 -9 -10 0
-6 -9 10 0
6 9 10 0
-11 -1 0
-11 10 0
1 -10 11 0
-6 12 -13 0
6 -12 -13 0
-6 -12 13 0
6 12 13 0
-14 11 0
-14 -13 0
-11 13 14 0
4 -15 -16 0
-4 15 -16 0
4 15 16 0
-4 -15 16 0
17 -14 0
17 16 0
14 -16 -17 0
19 -18 0
19 6 0
18 -6 -19 0
20 17 0
20 -19 0
-17 19 -20 0
-21 7 0
-21 -3 0
-7 3 21 0
-22 -21 0
-22 -5 0
21 5 22 0
-23 -1 0
-23 12 0
1 -12 23 0
-24 22 0
-24 23 0
-22 -23 24 0
-5 6 -25 0
5 -6 -25 0
-5 -6 25 0
5 6 25 0
-26 -15 0
-26 7 0
15 -7 26 0
27 -9 0
27 -26 0
9 26 -27 0
-25 -27 -28 0
25 27 -28 0
-25 27 28 0
25 -27 28 0
29 25 0
29 -28 0
-25 28 -29 0
24 29 -30 0
-24 -29 -30 0
24 -29 30 0
-24 29 30 0
-31 20 0
-31 30 0
-20 -30 31 0
1 -4 -32 0
-1 4 -32 0
1 4 32 0
-1 -4 32 0
34 -33 0
34 -9 0
33 9 -34 0
35 -32 0
35 -34 0
32 34 -35 0
-26 33 -36 0
26 -33 -36 0
-26 -33 36 0
26 33 36 0
-37 11 0
-37 36 0
-11 -36 37 0
-38 -33 0
-38 -26 0
33 26 38 0
39 -1 0
39 2 0
1 -2 -39 0
23 10 -40 0
-23 -10 -40 0
23 -10 40 0
-23 10 40 0
41 -26 0
41 -40 0
26 40 -41 0
42 39 0
42 -41 0
-39 41 -42 0
-38 -42 -43 0
38 42 -43 0
-38 42 43 0
38 -42 43 0
-44 37 0
-44 43 0
-37 -43 44 0
-35 44 -45 0
35 -44 -45 0
-35 -44 45 0
35 44 45 0
-46 -31 0
-46 45 0
31 -45 46 0
47 -22 0
47 -26 0
22 26 -47 0
48 36 0
48 22 0
-36 -22 -48 0
-47 48 -49 0
47 -48 -49 0
-47 -48 49 0
47 48 49 0
-50 -2 0
-50 -23 0
2 23 50 0
-23 50 -51 0
23 -50 -51 0
-23 -50 51 0
23 50 51 0
52 -25 0
52 -26 0
25 26 -52 0
53 -51 0
53 52 0
51 -52 -53 0
-54 49 0
-54 53 0
-49 -53 54 0
55 -46 0
55 54 0
46 -54 -55 0
20 -26 -40 47 34 28 -16 0
-43 44 -28 -15 -50 -5 48 0
-15 -50 19 0
2 -32 52 -36 0
-8 -27 34 39 -1 -16 3 0
33 8 -15 0
-43 20 -30 47 -39 0
-13 6 -14 41 -48 0
49 -26 -46 -1 -50 18 0
45 52 30 0
-26 -28 -3 7 -34 -45 -44 0
-37 -22 -13 1 0
-13 36 50 0
26 -5 -46 18 -11 -4 0
47 30 16 28 -25 45 21 0
55 0
